==> MAXTIME              = 3600
==> OUTPUTLOG            = 1
==> SBESTIMATE           = 4
FICO Xpress v8.5.9, solve started 23:50:08, Jun 8, 2019
Maximizing MILP Seating model
Original problem has:
       230 rows          300 cols         7440 elements       300 globals
Presolved problem has:
       103 rows          204 cols         2431 elements       198 globals
LP relaxation tightened
Will try to keep branch and bound tree memory usage below 7.2GB
 *** Heuristic solution found:    22.000000      Time: 0 ***
Starting concurrent solve with dual

 Concurrent-Solve,   0s
            Dual        
    objective   dual inf
 D  102.00000   .0000000
------- optimal --------
Concurrent statistics:
      Dual: 34 simplex iterations, 0.00s
Optimal solution found
 
   Its         Obj Value      S   Ninf  Nneg   Sum Dual Inf  Time
    34        102.000000      D      0     0        .000000     0
Dual solved problem
  34 simplex iterations in 0s

Final objective                         : 1.020000000000000e+02
  Max primal violation      (abs / rel) : 1.110e-16 / 9.869e-17
  Max dual violation        (abs / rel) :       0.0 /       0.0
  Max complementarity viol. (abs / rel) :       0.0 /       0.0
All values within tolerances

Starting root cutting & heuristics
 
 Its Type    BestSoln    BestBound   Sols    Add    Del     Gap     GInf   Time
   1  K     22.000000   102.000000      1     99      0   78.43%      29      0
   2  K     22.000000   102.000000      1    111     81   78.43%      43      0
   3  K     22.000000   102.000000      1     92    101   78.43%      48      0
b           28.000000   102.000000      2                 72.55%       0      0
   4  K     28.000000   102.000000      2     87     94   72.55%      35      0
   5  K     28.000000   102.000000      2    100     83   72.55%      49      0
   6  K     28.000000   102.000000      2     93     97   72.55%      47      0
   7  K     28.000000   102.000000      2     89     88   72.55%      58      0
b           35.000000   102.000000      3                 65.69%       0      0
   8  K     35.000000   102.000000      3     81     91   65.69%      37      0
   9  K     35.000000   102.000000      3     95     87   65.69%      48      0
  10  K     35.000000   102.000000      3     97     89   65.69%      58      0
  11  K     35.000000   102.000000      3     83     86   65.69%      67      0
  12  K     35.000000   102.000000      3     93     82   65.69%      72      0
  13  K     35.000000   102.000000      3     87     85   65.69%      76      0
  14  K     35.000000   102.000000      3      2     83   65.69%      39      0
  15  K     35.000000   102.000000      3      1      7   65.69%      39      0
  16  K     35.000000   102.000000      3      1     13   65.69%      39      0
  17  K     35.000000   102.000000      3     96      8   65.69%      58      0
  18  K     35.000000   102.000000      3      2     91   65.69%      39      0
b           47.000000   102.000000      4                 53.92%       0      0
  19  K     47.000000   102.000000      4     93     14   53.92%      52      0
  20  K     47.000000   102.000000      4     99    150   53.92%      59      0
  21  G     47.000000   102.000000      4     39     31   53.92%      41      0
  22  G     47.000000   102.000000      4     70    110   53.92%      55      0
Heuristic search started
Heuristic search stopped
 
Cuts in the matrix         : 39
Cut elements in the matrix : 1106
 
Starting tree search.
Deterministic mode with up to 4 running threads and up to 8 tasks.
 
    Node     BestSoln    BestBound   Sols Active  Depth     Gap     GInf   Time
       1    47.000000   102.000000      4      2      1   53.92%      45      0
       2    47.000000   102.000000      4      2      2   53.92%      57      1
       3    47.000000   102.000000      4      2      3   53.92%      30      1
       4    47.000000   102.000000      4      2      2   53.92%      35      1
       5    47.000000   102.000000      4      2      3   53.92%      48      1
       6    47.000000   102.000000      4      2      4   53.92%      36      1
       7    47.000000   102.000000      4      5      3   53.92%      47      1
       8    47.000000   102.000000      4      5      4   53.92%      21      1
       9    47.000000   102.000000      4      8      4   53.92%      54      1
      10    47.000000   102.000000      4      8      5   53.92%      50      1
      20    47.000000   102.000000      4     17      8   53.92%      42      1
      32    47.000000   102.000000      4     17     15   53.92%      44      1
a     37    49.000000   102.000000      5     17     18   51.96%       0      1
      46    49.000000   102.000000      5     17     16   51.96%      37      1
      59    49.000000   102.000000      5     17     26   51.96%       3      1
      81    49.000000   102.000000      5     32     29   51.96%      30      1
a     93    55.000000   102.000000      6     32     16   46.08%       0      1
     103    55.000000   102.000000      6     32     15   46.08%      49      1
a    111    57.000000   102.000000      7     32     21   44.12%       0      1
B&B tree size: 0.8MB total
 
    Node     BestSoln    BestBound   Sols Active  Depth     Gap     GInf   Time
     214    57.000000   102.000000      7     55     16   44.12%      29      1
     325    57.000000   102.000000      7     55     23   44.12%      12      1
     434    57.000000   102.000000      7     89     24   44.12%      12      1
     537    57.000000   102.000000      7     89     16   44.12%      50      1
     641    57.000000   102.000000      7     89     16   44.12%      42      1
     748    57.000000   101.616871      7    148     16   43.91%      27      2
     853    57.000000   101.616871      7    256     19   43.91%      17      2
     962    57.000000   101.616871      7    289     16   43.91%      43      2
    1068    57.000000   101.616871      7    316     14   43.91%      50      2
    1189    57.000000   101.616871      7    316     24   43.91%      35      2
a   1301    60.000000   101.616871      8    316     34   40.95%       0      2
    1305    60.000000   101.616871      8    316     32   40.95%      26      2
    1420    60.000000   101.616871      8    316     14   40.95%      44      2
    1525    60.000000   101.616871      8    316     16   40.95%      43      2
    1626    60.000000   101.616871      8    316     21   40.95%      28      2
    1740    60.000000   101.616871      8    358     14   40.95%      55      2
    1841    60.000000   101.616871      8    358     16   40.95%      50      2
    1952    60.000000   101.616871      8    358     22   40.95%      40      3
    2052    60.000000   101.616871      8    358     19   40.95%      47      3
    2155    60.000000   101.616871      8    358     16   40.95%      45      3
B&B tree size: 6.1MB total
 
    Node     BestSoln    BestBound   Sols Active  Depth     Gap     GInf   Time
    2264    60.000000    99.170041      8    476     19   39.50%      30      3
    2364    60.000000    99.170041      8    476     18   39.50%      46      3
    2468    60.000000    99.170041      8    476     22   39.50%      27      3
    2569    60.000000    99.170041      8    531     21   39.50%      26      3
    2678    60.000000    99.170041      8    595     20   39.50%      18      3
    2784    60.000000    99.170041      8    595     14   39.50%      48      3
    2890    60.000000    99.164918      8    673     13   39.49%      58      3
    3001    60.000000    99.164918      8    673     27   39.49%      18      3
    3101    60.000000    99.164918      8    673     25   39.49%      23      4
    3226    60.000000    99.164918      8    774     16   39.49%      28      4
    3336    60.000000    99.164918      8    774     16   39.49%      44      4
    3452    60.000000    99.164918      8    774     27   39.49%      15      4
    3559    60.000000    99.164918      8    774     16   39.49%      45      4
    3665    60.000000    99.164918      8    774     16   39.49%      37      4
    3779    60.000000    99.164918      8    774     21   39.49%      22      4
    3880    60.000000    99.164918      8    881     14   39.49%      26      4
    3994    60.000000    99.164918      8    881     16   39.49%      27      4
    4100    60.000000    99.164918      8    881     14   39.49%      50      4
    4212    60.000000    99.164918      8    881     16   39.49%      43      4
    4316    60.000000    99.164918      8    881     25   39.49%      12      4
B&B tree size: 10MB total
 
    Node     BestSoln    BestBound   Sols Active  Depth     Gap     GInf   Time
    4428    60.000000    99.164918      8    881     24   39.49%      29      5
    4536    60.000000    99.164918      8    881     25   39.49%      34      5
    4637    60.000000    99.164918      8    983     23   39.49%      30      5
    4740    60.000000    99.164918      8    983     16   39.49%      39      5
    4843    60.000000    99.164918      8    983     22   39.49%      30      5
    4953    60.000000    99.164918      8    983     18   39.49%      34      5
    5054    60.000000    99.164918      8   1141      1   39.49%       1      5
    5160    60.000000    99.164918      8   1141     16   39.49%      33      5
    5273    60.000000    99.164918      8   1141     26   39.49%      16      5
    5377    60.000000    99.164918      8   1250     15   39.49%      45      5
    5477    60.000000    99.164918      8   1348     21   39.49%      19      5
    5582    60.000000    94.836448      8   1462     20   36.73%      26      5
    5691    60.000000    94.836448      8   1462     16   36.73%      36      5
    5804    60.000000    94.836448      8   1462     24   36.73%      32      5
    5908    60.000000    94.836448      8   1550     19   36.73%      35      5
    6015    60.000000    94.836448      8   1579     27   36.73%      17      6
    6121    60.000000    94.836448      8   1579     17   36.73%      53      6
    6231    60.000000    94.836448      8   1579     14   36.73%      16      6
    6342    60.000000    94.836448      8   1579     19   36.73%      19      6
    6450    60.000000    94.836448      8   1579     16   36.73%      38      6
B&B tree size: 13MB total
 
    Node     BestSoln    BestBound   Sols Active  Depth     Gap     GInf   Time
    6551    60.000000    94.836448      8   1579     22   36.73%      17      6
    6658    60.000000    94.836448      8   1579     22   36.73%      34      6
    6760    60.000000    94.836448      8   1579     24   36.73%      24      6
    6871    60.000000    94.836448      8   1579     24   36.73%      17      6
    6979    60.000000    94.836448      8   1603     26   36.73%      21      6
    7083    60.000000    94.836448      8   1668     14   36.73%      48      6
    7194    60.000000    94.836448      8   1668     22   36.73%      49      6
    7296    60.000000    94.836448      8   1668     16   36.73%      29      6
    7415    60.000000    94.836448      8   1668     23   36.73%      12      6
    7527    60.000000    94.836448      8   1697     23   36.73%      28      7
    7641    60.000000    94.836448      8   1697     24   36.73%      23      7
    7746    60.000000    94.836448      8   1697     21   36.73%      17      7
    7857    60.000000    91.671078      8   1756     20   34.55%      18      7
    7963    60.000000    91.170839      8   1862     23   34.19%      30      7
    8073    60.000000    90.196649      8   1966     19   33.48%      28      7
    8180    60.000000    90.196649      8   1966     26   33.48%      18      7
    8299    60.000000    90.196649      8   2025     23   33.48%      47      7
    8399    60.000000    90.196649      8   2025     17   33.48%      34      7
    8506    60.000000    90.196649      8   2025     23   33.48%      34      7
    8612    60.000000    90.196649      8   2025     22   33.48%      39      7
B&B tree size: 17MB total
 
    Node     BestSoln    BestBound   Sols Active  Depth     Gap     GInf   Time
    8723    60.000000    89.585310      8   2119     21   33.02%      35      7
    8829    60.000000    89.585310      8   2119     20   33.02%      23      7
    8935    60.000000    89.585310      8   2159     19   33.02%      32      8
    9042    60.000000    89.585310      8   2159     16   33.02%      37      8
    9149    60.000000    89.585310      8   2159     14   33.02%      56      8
    9257    60.000000    89.585310      8   2159     16   33.02%      46      8
    9362    60.000000    89.585310      8   2159     18   33.02%      45      8
    9465    60.000000    89.585310      8   2159     16   33.02%      23      8
    9581    60.000000    89.585310      8   2159     20   33.02%      36      8
    9691    60.000000    88.747818      8   2240     20   32.39%      45      8
    9794    60.000000    88.747818      8   2290     16   32.39%      42      8
    9899    60.000000    88.747818      8   2307     24   32.39%      35      8
   10014    60.000000    87.874528      8   2430     21   31.72%      25      8
   11024    60.000000    87.606095      8   2516     17   31.51%      33      9
   12039    60.000000    86.175141      8   2722     15   30.37%      18     10
   13040    60.000000    85.500537      8   2821     21   29.83%      41     10
   14046    60.000000    85.000000      8   2971     23   29.41%      20     11
   15052    60.000000    84.958587      8   3209     19   29.38%       9     12
   16058    60.000000    84.958587      8   3416     21   29.38%      43     12
   17075    60.000000    84.958587      8   3490     20   29.38%      30     13
B&B tree size: 29MB total
 
    Node     BestSoln    BestBound   Sols Active  Depth     Gap     GInf   Time
   18089    60.000000    82.000000      8   3569     23   26.83%      21     14
   19103    60.000000    82.000000      8   3707     20   26.83%      45     15
   20105    60.000000    82.000000      8   3828     21   26.83%      39     15
   21110    60.000000    81.934199      8   3917     27   26.77%      29     16
   22124    60.000000    80.043651      8   3959     25   25.04%      31     16
   23138    60.000000    80.000000      8   4033     25   25.00%      32     17
   24146    60.000000    78.713384      8   4056     20   23.77%      24     18
   25151    60.000000    78.667297      8   4040     17   23.73%      43     19
   26162    60.000000    78.000000      8   4065     15   23.08%      28     19
   27173    60.000000    78.000000      8   4107     23   23.08%      37     20
   28181    60.000000    77.153039      8   4133     22   22.23%      25     21
   29193    60.000000    77.000783      8   4139     27   22.08%      33     21
   30212    60.000000    77.000000      8   4180     25   22.08%      21     22
   31215    60.000000    76.104076      8   4143     22   21.16%      38     23
   32225    60.000000    75.712547      8   4122     16   20.75%      39     24
   33228    60.000000    75.176755      8   4090     23   20.19%      23     25
   34232    60.000000    75.000000      8   4061     21   20.00%      55     25
   35235    60.000000    74.568732      8   4005     19   19.54%      15     26
   36244    60.000000    74.129571      8   3952     23   19.06%       9     27
   37252    60.000000    74.000000      8   3944     22   18.92%      18     28
B&B tree size: 37MB total
 
    Node     BestSoln    BestBound   Sols Active  Depth     Gap     GInf   Time
   38269    60.000000    73.552255      8   3867     25   18.43%      29     28
   39277    60.000000    73.119232      8   3818     25   17.94%      35     29
   40285    60.000000    73.000000      8   3802     22   17.81%      47     30
   41285    60.000000    73.000000      8   3784     21   17.81%      27     30
   42290    60.000000    73.000000      8   3729     18   17.81%      14     31
   43301    60.000000    72.590492      8   3643     25   17.34%      24     31
   44304    60.000000    72.000000      8   3582     25   16.67%      24     32
   45304    60.000000    71.615986      8   3468     18   16.22%      29     33
   46304    60.000000    71.000000      8   3349     22   15.49%      35     34
   47308    60.000000    71.000000      8   3229     21   15.49%      37     34
   48314    60.000000    70.098110      8   3089     21   14.41%      38     35
   49314    60.000000    70.000000      8   2980     19   14.29%      19     36
   50334    60.000000    69.266326      8   2809     25   13.38%      24     36
   51334    60.000000    69.000000      8   2694     23   13.04%      36     37
   52335    60.000000    69.000000      8   2571     19   13.04%      23     38
   53338    60.000000    68.057940      8   2351     26   11.84%      32     39
   54340    60.000000    68.000000      8   2210     21   11.76%      35     39
   55348    60.000000    67.007625      8   1925     23   10.46%      15     40
   56348    60.000000    67.000000      8   1769     21   10.45%      40     40
   57348    60.000000    65.583942      8   1353     19    8.51%      37     41
B&B tree size: 20MB total
 
    Node     BestSoln    BestBound   Sols Active  Depth     Gap     GInf   Time
   58350    60.000000    64.071429      8    891     23    6.35%      44     42
   59350    60.000000    63.000000      8    479     21    4.76%      39     42
   60365    60.000000    62.000000      8    125     28    3.23%      30     42
 *** Search completed ***     Time:    43 Nodes:      60789
Number of integer feasible solutions found is 8
Best integer solution found is    60.000000
Best bound is    60.000000
Uncrunching matrix
